decision_x1=[0,7];
decision_x2=[0,7];
decision_x3=[0,7];
decision_x4=[0,7];
decision_x5=[0,7];
decision_x6=[0,7];
decision_x7=[0,7];
decision_x8=[0,7];
decision_x9=[0,7];
decision_x10=[0,7];
decision_x11=[0,7];
decision_x12=[0,7];
decision_x13=[0,7];
decision_x14=[0,7];
random_y1=[0,7];
random_y2=[0,7];
random_y3=[0,7];
random_y4=[0,7];
random_y5=[0,7];
random_y6=[0,7];
constraint_x2_x1=[
0,0,8.1|
0,1,0.83|
0,2,0.29|
0,3,9.5|
0,4,0.15|
0,5,7.7|
0,6,0.69|
0,7,7.2|
1,0,2.9|
1,1,3.5|
1,2,1.3|
1,3,0.31|
1,4,2.1|
1,5,7.7|
1,6,9.5|
1,7,1.2|
2,0,3.8|
2,1,1.4|
2,2,2.8|
2,3,6.9|
2,4,7.1|
2,5,5.2|
2,6,8.7|
2,7,8.5|
3,0,6.5|
3,1,2.7|
3,2,3|
3,3,6.7|
3,4,6.4|
3,5,9.1|
3,6,5.7|
3,7,4|
4,0,3.1|
4,1,5|
4,2,0.26|
4,3,0.37|
4,4,3.2|
4,5,8.8|
4,6,5.5|
4,7,2.1|
5,0,2|
5,1,0.11|
5,2,2.2|
5,3,7.6|
5,4,1.9|
5,5,1.7|
5,6,6.9|
5,7,6.1|
6,0,4.5|
6,1,2.2|
6,2,7.9|
6,3,1.1|
6,4,6.6|
6,5,5.1|
6,6,2.2|
6,7,9.6|
7,0,6|
7,1,3.8|
7,2,1.9|
7,3,2.8|
7,4,0.16|
7,5,6.1|
7,6,7.1|
7,7,3.7|
];
constraint_x3_x2=[
0,0,6.3|
0,1,6.6|
0,2,2.3|
0,3,8.4|
0,4,7.6|
0,5,3.9|
0,6,0.14|
0,7,5.9|
1,0,3.8|
1,1,3|
1,2,5.1|
1,3,5|
1,4,0.78|
1,5,8.4|
1,6,5.8|
1,7,6.4|
2,0,7.7|
2,1,7.5|
2,2,9.1|
2,3,3.5|
2,4,1.2|
2,5,1.3|
2,6,5|
2,7,9.7|
3,0,8.3|
3,1,8.9|
3,2,6.7|
3,3,3|
3,4,7.7|
3,5,0.96|
3,6,0.49|
3,7,1.1|
4,0,7.7|
4,1,1.5|
4,2,5.6|
4,3,8.7|
4,4,4.2|
4,5,0.28|
4,6,9.1|
4,7,2.5|
5,0,4.2|
5,1,9.4|
5,2,3.8|
5,3,4.5|
5,4,1.8|
5,5,7.7|
5,6,6|
5,7,2.5|
6,0,9|
6,1,3.1|
6,2,2.1|
6,3,1.8|
6,4,7.1|
6,5,3.5|
6,6,1.6|
6,7,1.5|
7,0,4.3|
7,1,7|
7,2,6.3|
7,3,2.7|
7,4,2.1|
7,5,8.3|
7,6,1.1|
7,7,9.3|
];
constraint_x4_x3=[
0,0,0.22|
0,1,6|
0,2,4.4|
0,3,3.9|
0,4,8.7|
0,5,0.34|
0,6,7.8|
0,7,4.6|
1,0,4.6|
1,1,7.2|
1,2,7.3|
1,3,0.24|
1,4,2.4|
1,5,3|
1,6,1.4|
1,7,9.3|
2,0,4.5|
2,1,0.92|
2,2,9.4|
2,3,0.71|
2,4,9|
2,5,9.3|
2,6,7.1|
2,7,2.6|
3,0,4.8|
3,1,5.2|
3,2,6.6|
3,3,2.4|
3,4,9.8|
3,5,8.1|
3,6,0.59|
3,7,5|
4,0,3.1|
4,1,6.5|
4,2,9|
4,3,5.5|
4,4,0.15|
4,5,0.29|
4,6,5.5|
4,7,1.6|
5,0,4.5|
5,1,4.2|
5,2,8.7|
5,3,0.59|
5,4,3.4|
5,5,2|
5,6,6|
5,7,2.8|
6,0,7.1|
6,1,1.1|
6,2,1.3|
6,3,4|
6,4,8.3|
6,5,3.3|
6,6,8.5|
6,7,5|
7,0,3|
7,1,8.8|
7,2,1.5|
7,3,8.2|
7,4,4.3|
7,5,9.1|
7,6,8.5|
7,7,5.6|
];
constraint_x5_x1=[
0,0,2.2|
0,1,1.9|
0,2,2|
0,3,2.9|
0,4,5.9|
0,5,0.54|
0,6,8.8|
0,7,7.6|
1,0,2.2|
1,1,9.5|
1,2,7.9|
1,3,1.1|
1,4,3|
1,5,1.9|
1,6,2.6|
1,7,3|
2,0,0.0081|
2,1,8.5|
2,2,9.8|
2,3,7.3|
2,4,0.71|
2,5,2.3|
2,6,0.99|
2,7,6.5|
3,0,0.57|
3,1,3.5|
3,2,5.8|
3,3,1.8|
3,4,3.8|
3,5,1.2|
3,6,3.8|
3,7,5.2|
4,0,8.5|
4,1,10|
4,2,5.1|
4,3,7.8|
4,4,8.9|
4,5,9.2|
4,6,1.1|
4,7,9.1|
5,0,1.2|
5,1,0.75|
5,2,5.6|
5,3,0.78|
5,4,1.2|
5,5,7.1|
5,6,10|
5,7,8.2|
6,0,5.6|
6,1,8|
6,2,8.4|
6,3,9.6|
6,4,9.8|
6,5,3.7|
6,6,3.1|
6,7,6.6|
7,0,0.92|
7,1,8.5|
7,2,0.26|
7,3,5.1|
7,4,0.77|
7,5,9|
7,6,8.6|
7,7,9|
];
constraint_x6_x2=[
0,0,9.3|
0,1,1|
0,2,3.5|
0,3,4.6|
0,4,1.7|
0,5,9.6|
0,6,9.5|
0,7,5.5|
1,0,8.4|
1,1,1.9|
1,2,1.2|
1,3,9.9|
1,4,9.2|
1,5,3.8|
1,6,0.1|
1,7,6|
2,0,2.5|
2,1,0.55|
2,2,7.3|
2,3,4.1|
2,4,1.7|
2,5,5.6|
2,6,9.5|
2,7,6.3|
3,0,9.5|
3,1,7.6|
3,2,8.8|
3,3,7.8|
3,4,8.9|
3,5,7.4|
3,6,9.5|
3,7,6.7|
4,0,9.7|
4,1,9.2|
4,2,0.73|
4,3,6.6|
4,4,9.4|
4,5,7.1|
4,6,7.3|
4,7,1.8|
5,0,2.4|
5,1,5.3|
5,2,6.8|
5,3,1.9|
5,4,2.5|
5,5,7|
5,6,3.6|
5,7,3.9|
6,0,1.6|
6,1,3.6|
6,2,8.1|
6,3,2.4|
6,4,5.6|
6,5,3.8|
6,6,0.38|
6,7,0.69|
7,0,5|
7,1,7|
7,2,3.3|
7,3,0.9|
7,4,6.4|
7,5,5.1|
7,6,0.0034|
7,7,3.9|
];
constraint_x6_x5=[
0,0,3.7|
0,1,9.9|
0,2,2.2|
0,3,1.9|
0,4,9|
0,5,6|
0,6,3.4|
0,7,3.3|
1,0,7|
1,1,5|
1,2,8|
1,3,8|
1,4,4.2|
1,5,9.6|
1,6,1.5|
1,7,5.1|
2,0,4|
2,1,8.1|
2,2,1.1|
2,3,3.2|
2,4,10|
2,5,0.84|
2,6,10|
2,7,6.9|
3,0,3.2|
3,1,4.8|
3,2,0.81|
3,3,3.4|
3,4,8.6|
3,5,8.4|
3,6,0.11|
3,7,6.6|
4,0,6.9|
4,1,0.03|
4,2,8.5|
4,3,5.6|
4,4,1.3|
4,5,3.9|
4,6,9.4|
4,7,3.1|
5,0,4.4|
5,1,3|
5,2,1.4|
5,3,8.2|
5,4,5.3|
5,5,1.1|
5,6,7.3|
5,7,5.9|
6,0,0.14|
6,1,3.3|
6,2,5.7|
6,3,9.3|
6,4,5.7|
6,5,8.2|
6,6,1.2|
6,7,9.7|
7,0,0.29|
7,1,3|
7,2,5.7|
7,3,5.7|
7,4,3.3|
7,5,9.7|
7,6,9.7|
7,7,2.7|
];
constraint_x7_x3=[
0,0,8.8|
0,1,0.98|
0,2,2.6|
0,3,4.6|
0,4,7.1|
0,5,0.17|
0,6,9.5|
0,7,8.8|
1,0,7.3|
1,1,6.1|
1,2,4.9|
1,3,5.4|
1,4,9.7|
1,5,7.2|
1,6,9.7|
1,7,2.6|
2,0,1.2|
2,1,4.7|
2,2,8.2|
2,3,0.21|
2,4,4.8|
2,5,3.6|
2,6,5.7|
2,7,0.65|
3,0,7.8|
3,1,9.8|
3,2,7.4|
3,3,3.9|
3,4,0.19|
3,5,5|
3,6,7.2|
3,7,9.6|
4,0,2.9|
4,1,6.7|
4,2,8.9|
4,3,1.1|
4,4,6.8|
4,5,0.52|
4,6,2.4|
4,7,4.2|
5,0,5.6|
5,1,5.8|
5,2,4.1|
5,3,7.9|
5,4,3.5|
5,5,0.14|
5,6,5.3|
5,7,1.9|
6,0,2.1|
6,1,8.3|
6,2,1|
6,3,7.2|
6,4,8.6|
6,5,1.8|
6,6,9.8|
6,7,0.72|
7,0,5.4|
7,1,2.8|
7,2,3.1|
7,3,3.8|
7,4,9.8|
7,5,8.8|
7,6,7.9|
7,7,1.2|
];
constraint_x7_x6=[
0,0,2.7|
0,1,2|
0,2,8.2|
0,3,0.015|
0,4,9.9|
0,5,8.9|
0,6,1.4|
0,7,8.9|
1,0,8|
1,1,3.8|
1,2,7.8|
1,3,0.015|
1,4,1.1|
1,5,0.58|
1,6,4.8|
1,7,0.045|
2,0,6.2|
2,1,9.8|
2,2,6.2|
2,3,8.3|
2,4,1.2|
2,5,4.2|
2,6,3.5|
2,7,9.5|
3,0,3.7|
3,1,10|
3,2,0.75|
3,3,9.3|
3,4,4.5|
3,5,3.8|
3,6,2.6|
3,7,9.1|
4,0,0.69|
4,1,4.8|
4,2,6.1|
4,3,0.036|
4,4,1.5|
4,5,9.8|
4,6,7.5|
4,7,6.1|
5,0,5|
5,1,2.7|
5,2,9.2|
5,3,8.6|
5,4,5.1|
5,5,3.6|
5,6,1.6|
5,7,8.4|
6,0,5.3|
6,1,5.3|
6,2,3.8|
6,3,2.7|
6,4,0.35|
6,5,3.1|
6,6,3.9|
6,7,5.1|
7,0,10|
7,1,9.7|
7,2,7.1|
7,3,7.4|
7,4,4.2|
7,5,2.5|
7,6,6.3|
7,7,7|
];
constraint_x8_x4=[
0,0,6.9|
0,1,8.2|
0,2,7.9|
0,3,6.7|
0,4,2|
0,5,9.7|
0,6,7.8|
0,7,5.6|
1,0,9.9|
1,1,1.3|
1,2,8.2|
1,3,2.4|
1,4,3.4|
1,5,4|
1,6,9.6|
1,7,1.8|
2,0,0.61|
2,1,3.8|
2,2,7.4|
2,3,3|
2,4,5.3|
2,5,2.4|
2,6,8.6|
2,7,9.6|
3,0,4.8|
3,1,9.1|
3,2,8.7|
3,3,6.6|
3,4,2.5|
3,5,0.33|
3,6,0.89|
3,7,2.9|
4,0,5.7|
4,1,7.9|
4,2,4.6|
4,3,6.2|
4,4,0.087|
4,5,3.7|
4,6,6|
4,7,9.2|
5,0,8.7|
5,1,9.2|
5,2,9.5|
5,3,2.6|
5,4,0.98|
5,5,7.1|
5,6,0.34|
5,7,2.8|
6,0,1.1|
6,1,4.6|
6,2,7.2|
6,3,2.4|
6,4,0.35|
6,5,2.4|
6,6,3.9|
6,7,7.5|
7,0,6.3|
7,1,9.1|
7,2,1.6|
7,3,3.9|
7,4,7.4|
7,5,7|
7,6,6.9|
7,7,4|
];
constraint_x8_x7=[
0,0,1.9|
0,1,0.023|
0,2,1.6|
0,3,8.2|
0,4,3.3|
0,5,7.1|
0,6,1.9|
0,7,6|
1,0,8.2|
1,1,7.5|
1,2,5.1|
1,3,1.7|
1,4,5.1|
1,5,3.3|
1,6,6.3|
1,7,4.7|
2,0,2.9|
2,1,5.8|
2,2,1.8|
2,3,1.5|
2,4,1.6|
2,5,7.2|
2,6,4|
2,7,8.1|
3,0,2|
3,1,3.4|
3,2,8.4|
3,3,7.9|
3,4,2.9|
3,5,2.9|
3,6,7|
3,7,0.13|
4,0,6.7|
4,1,4.3|
4,2,5.7|
4,3,8.2|
4,4,0.35|
4,5,2.5|
4,6,6.8|
4,7,1.7|
5,0,5.1|
5,1,4.5|
5,2,4.4|
5,3,0.37|
5,4,7.8|
5,5,3.7|
5,6,1.9|
5,7,9.7|
6,0,0.95|
6,1,8.8|
6,2,5.7|
6,3,7.3|
6,4,5.9|
6,5,3.3|
6,6,9.3|
6,7,7.8|
7,0,0.47|
7,1,4.1|
7,2,5.8|
7,3,0.66|
7,4,9|
7,5,3|
7,6,7.8|
7,7,1.5|
];
constraint_x9_x5=[
0,0,4.7|
0,1,9.5|
0,2,0.4|
0,3,9.9|
0,4,3.6|
0,5,7.2|
0,6,0.76|
0,7,6.7|
1,0,3.9|
1,1,5.6|
1,2,3.1|
1,3,5.5|
1,4,2.3|
1,5,8|
1,6,3.1|
1,7,1.9|
2,0,2.9|
2,1,8.1|
2,2,8.2|
2,3,2.7|
2,4,0.88|
2,5,8.1|
2,6,7.7|
2,7,8.1|
3,0,8.9|
3,1,9.3|
3,2,9.9|
3,3,9.3|
3,4,0.45|
3,5,3|
3,6,3.3|
3,7,5.8|
4,0,7|
4,1,9.4|
4,2,2.4|
4,3,7.2|
4,4,5.4|
4,5,6.6|
4,6,1.2|
4,7,1.8|
5,0,2.3|
5,1,6.8|
5,2,3.2|
5,3,6|
5,4,9.6|
5,5,5.9|
5,6,9.9|
5,7,0.12|
6,0,1.3|
6,1,4.9|
6,2,4.9|
6,3,2.5|
6,4,5|
6,5,0.4|
6,6,3.9|
6,7,1|
7,0,5|
7,1,7.4|
7,2,8.3|
7,3,0.35|
7,4,9.8|
7,5,5.8|
7,6,6.3|
7,7,0.82|
];
constraint_x10_x6=[
0,0,9.6|
0,1,6.3|
0,2,3.3|
0,3,9|
0,4,5.1|
0,5,2.3|
0,6,7.1|
0,7,9.9|
1,0,5.6|
1,1,8.8|
1,2,7|
1,3,9.6|
1,4,4.6|
1,5,5.2|
1,6,0.88|
1,7,1.4|
2,0,0.094|
2,1,0.55|
2,2,7.4|
2,3,6|
2,4,1.8|
2,5,2.7|
2,6,2.8|
2,7,0.3|
3,0,4.8|
3,1,7.4|
3,2,8.8|
3,3,0.66|
3,4,4.9|
3,5,3.1|
3,6,2.3|
3,7,0.68|
4,0,0.68|
4,1,1.4|
4,2,1.4|
4,3,0.23|
4,4,3.1|
4,5,3.8|
4,6,5.3|
4,7,2.9|
5,0,4|
5,1,7.5|
5,2,4.6|
5,3,7.1|
5,4,9.6|
5,5,2|
5,6,9.6|
5,7,1|
6,0,3|
6,1,0.23|
6,2,8.7|
6,3,9.9|
6,4,6.2|
6,5,8.5|
6,6,9.8|
6,7,6.7|
7,0,6|
7,1,8.2|
7,2,9.9|
7,3,9.8|
7,4,6.9|
7,5,8.1|
7,6,0.19|
7,7,2.2|
];
constraint_x10_x9=[
0,0,9.2|
0,1,3.2|
0,2,1.1|
0,3,0.72|
0,4,1.5|
0,5,6.8|
0,6,0.89|
0,7,8.2|
1,0,9.2|
1,1,2|
1,2,6.5|
1,3,3.6|
1,4,3.8|
1,5,3.1|
1,6,0.027|
1,7,0.038|
2,0,7.8|
2,1,5.7|
2,2,9.6|
2,3,5.4|
2,4,0.59|
2,5,5.5|
2,6,9.9|
2,7,7|
3,0,2.1|
3,1,6|
3,2,2.6|
3,3,9.1|
3,4,4.4|
3,5,8.6|
3,6,4.5|
3,7,6.8|
4,0,7.8|
4,1,2.8|
4,2,2|
4,3,7.4|
4,4,5.7|
4,5,2.7|
4,6,3.8|
4,7,0.76|
5,0,6.6|
5,1,3.6|
5,2,0.25|
5,3,5.4|
5,4,0.96|
5,5,9.3|
5,6,8.8|
5,7,0.51|
6,0,9|
6,1,4.7|
6,2,6.9|
6,3,8.9|
6,4,2.6|
6,5,6.5|
6,6,2.9|
6,7,5.9|
7,0,3.2|
7,1,0.32|
7,2,2|
7,3,4.7|
7,4,3.4|
7,5,8.6|
7,6,8.7|
7,7,3.2|
];
constraint_x11_x7=[
0,0,1.7|
0,1,6.1|
0,2,7.6|
0,3,4.9|
0,4,2|
0,5,1.1|
0,6,8.6|
0,7,9.7|
1,0,2.9|
1,1,0.71|
1,2,5.7|
1,3,4.1|
1,4,5.4|
1,5,8.6|
1,6,2.4|
1,7,2|
2,0,0.13|
2,1,1.3|
2,2,9.9|
2,3,6.5|
2,4,6.4|
2,5,3.8|
2,6,4.4|
2,7,7.3|
3,0,0.29|
3,1,8.8|
3,2,7.5|
3,3,0.16|
3,4,5.4|
3,5,3|
3,6,2.8|
3,7,8.8|
4,0,6|
4,1,3.8|
4,2,6.2|
4,3,8.8|
4,4,8.2|
4,5,5.8|
4,6,8.1|
4,7,0.26|
5,0,8.8|
5,1,6.5|
5,2,3.2|
5,3,7.8|
5,4,1.7|
5,5,6.5|
5,6,2.3|
5,7,6.8|
6,0,0.23|
6,1,2.2|
6,2,8.9|
6,3,0.76|
6,4,7.4|
6,5,1.8|
6,6,0.61|
6,7,3.6|
7,0,0.81|
7,1,7.3|
7,2,2.3|
7,3,9.2|
7,4,7.5|
7,5,3.4|
7,6,7.8|
7,7,6.9|
];
constraint_x11_x10=[
0,0,0.062|
0,1,0.76|
0,2,9.9|
0,3,5.3|
0,4,5.3|
0,5,8.8|
0,6,7.7|
0,7,3.7|
1,0,3.2|
1,1,9.2|
1,2,8.6|
1,3,2.6|
1,4,1.8|
1,5,6.4|
1,6,5.1|
1,7,6.8|
2,0,7.9|
2,1,1.7|
2,2,9.6|
2,3,8|
2,4,7.5|
2,5,8.4|
2,6,9.1|
2,7,8|
3,0,3.5|
3,1,2.3|
3,2,8.3|
3,3,5.5|
3,4,8.3|
3,5,2.3|
3,6,3.3|
3,7,6.7|
4,0,7.4|
4,1,2.6|
4,2,3.5|
4,3,2|
4,4,3.3|
4,5,8.1|
4,6,2.5|
4,7,7.9|
5,0,2|
5,1,6.5|
5,2,9.5|
5,3,4.4|
5,4,2.5|
5,5,8.5|
5,6,6.7|
5,7,9.1|
6,0,7.4|
6,1,3.3|
6,2,7.4|
6,3,8|
6,4,6.3|
6,5,5.9|
6,6,9.5|
6,7,3.3|
7,0,6.9|
7,1,5.8|
7,2,5.7|
7,3,7.9|
7,4,7.7|
7,5,5.7|
7,6,5.3|
7,7,9.5|
];
constraint_x12_x8=[
0,0,3|
0,1,6.1|
0,2,9.6|
0,3,1.5|
0,4,1.9|
0,5,9.7|
0,6,8.1|
0,7,5|
1,0,7.7|
1,1,3.1|
1,2,7|
1,3,3.3|
1,4,3|
1,5,0.82|
1,6,1.5|
1,7,9.3|
2,0,7.9|
2,1,5|
2,2,4.5|
2,3,6|
2,4,2.8|
2,5,0.24|
2,6,6.9|
2,7,6|
3,0,9.4|
3,1,2.1|
3,2,3.2|
3,3,0.81|
3,4,5.8|
3,5,1.3|
3,6,2.1|
3,7,1.2|
4,0,8.1|
4,1,1.1|
4,2,9.1|
4,3,7.5|
4,4,8.4|
4,5,4.4|
4,6,9.1|
4,7,5.4|
5,0,7.5|
5,1,6.6|
5,2,7.1|
5,3,5.1|
5,4,7.1|
5,5,2.5|
5,6,7.4|
5,7,3.1|
6,0,0.72|
6,1,3.2|
6,2,9.9|
6,3,0.94|
6,4,1.3|
6,5,7.4|
6,6,2.3|
6,7,3.6|
7,0,2.7|
7,1,8.9|
7,2,3.4|
7,3,8.3|
7,4,9.6|
7,5,1.7|
7,6,5.4|
7,7,0.31|
];
constraint_x12_x11=[
0,0,6.4|
0,1,1.9|
0,2,2.9|
0,3,0.68|
0,4,0.069|
0,5,6|
0,6,3.4|
0,7,4.9|
1,0,5.3|
1,1,6.7|
1,2,9.7|
1,3,8.8|
1,4,8.2|
1,5,1.9|
1,6,1.1|
1,7,6.3|
2,0,0.62|
2,1,5|
2,2,3.3|
2,3,6|
2,4,8.3|
2,5,7.3|
2,6,3.6|
2,7,6.6|
3,0,5.4|
3,1,3.9|
3,2,9.4|
3,3,10|
3,4,7.7|
3,5,9.3|
3,6,0.48|
3,7,7.3|
4,0,5.2|
4,1,0.85|
4,2,1.9|
4,3,1.7|
4,4,6.2|
4,5,9.3|
4,6,6.4|
4,7,5.3|
5,0,6.1|
5,1,4.7|
5,2,2.5|
5,3,5.6|
5,4,1.1|
5,5,1.2|
5,6,8.6|
5,7,4.9|
6,0,8.1|
6,1,3.1|
6,2,1.9|
6,3,5.2|
6,4,3.6|
6,5,6.2|
6,6,7.7|
6,7,2.3|
7,0,10|
7,1,2.2|
7,2,8.4|
7,3,2.5|
7,4,8.3|
7,5,4.3|
7,6,0.58|
7,7,6.9|
];
constraint_x13_x9=[
0,0,6.7|
0,1,7.4|
0,2,8.3|
0,3,7.7|
0,4,4.1|
0,5,3.7|
0,6,8.1|
0,7,2.7|
1,0,1.9|
1,1,0.71|
1,2,5.6|
1,3,9.8|
1,4,2.5|
1,5,9.8|
1,6,7|
1,7,5.7|
2,0,1.3|
2,1,6|
2,2,4.6|
2,3,2.5|
2,4,1.9|
2,5,8.1|
2,6,4.3|
2,7,7.9|
3,0,7.6|
3,1,4.1|
3,2,1.8|
3,3,2.7|
3,4,5.3|
3,5,3.5|
3,6,3.1|
3,7,7.5|
4,0,8|
4,1,7.8|
4,2,0.43|
4,3,7.3|
4,4,8.1|
4,5,3.9|
4,6,8.7|
4,7,10|
5,0,7.3|
5,1,6.2|
5,2,6.1|
5,3,0.03|
5,4,8|
5,5,1|
5,6,2.1|
5,7,1.4|
6,0,4.5|
6,1,6.5|
6,2,1.9|
6,3,7.8|
6,4,6.6|
6,5,3.5|
6,6,6.8|
6,7,5|
7,0,9.3|
7,1,2.4|
7,2,6.5|
7,3,2.6|
7,4,1.6|
7,5,5.2|
7,6,0.56|
7,7,8.4|
];
constraint_x14_x10=[
0,0,3.5|
0,1,4|
0,2,1.4|
0,3,2.1|
0,4,8.6|
0,5,2.8|
0,6,8.2|
0,7,0.83|
1,0,0.13|
1,1,9.4|
1,2,1|
1,3,0.98|
1,4,4.3|
1,5,7.1|
1,6,8.2|
1,7,2.4|
2,0,5.9|
2,1,9.2|
2,2,9.9|
2,3,9.6|
2,4,2.4|
2,5,6.7|
2,6,8.7|
2,7,8.8|
3,0,6.9|
3,1,9.3|
3,2,8.2|
3,3,7.2|
3,4,5.2|
3,5,2.2|
3,6,7.2|
3,7,1.7|
4,0,7|
4,1,0.69|
4,2,4.3|
4,3,3.8|
4,4,0.36|
4,5,2.1|
4,6,8.7|
4,7,6.1|
5,0,0.2|
5,1,2.6|
5,2,4.2|
5,3,1.4|
5,4,8.9|
5,5,5.2|
5,6,6|
5,7,0.55|
6,0,9.9|
6,1,3.7|
6,2,8.5|
6,3,6.9|
6,4,0.52|
6,5,0.82|
6,6,2.9|
6,7,5.7|
7,0,9.1|
7,1,9.8|
7,2,7.6|
7,3,8.2|
7,4,2.8|
7,5,1.4|
7,6,5|
7,7,8.2|
];
constraint_x1_y1=[
0,0,4.4|
0,1,8.9|
0,2,5|
0,3,2.9|
0,4,9.5|
0,5,3.6|
0,6,8.1|
0,7,0.25|
1,0,1.9|
1,1,6.8|
1,2,3.5|
1,3,2.1|
1,4,9.2|
1,5,4.5|
1,6,10|
1,7,6.4|
2,0,0.47|
2,1,10|
2,2,5.6|
2,3,8.4|
2,4,5.8|
2,5,9.1|
2,6,2.9|
2,7,9.1|
3,0,1|
3,1,3.6|
3,2,8.6|
3,3,4|
3,4,3.9|
3,5,0.74|
3,6,7.2|
3,7,0.76|
4,0,6.8|
4,1,6.5|
4,2,1.1|
4,3,5.6|
4,4,3.1|
4,5,2.1|
4,6,3.7|
4,7,9.7|
5,0,9.2|
5,1,1.9|
5,2,2.1|
5,3,1.7|
5,4,5.9|
5,5,2|
5,6,1.3|
5,7,3.6|
6,0,3.7|
6,1,2.2|
6,2,0.38|
6,3,7.1|
6,4,1.9|
6,5,7.2|
6,6,6.5|
6,7,3.5|
7,0,9|
7,1,3.1|
7,2,3.6|
7,3,6.2|
7,4,2.4|
7,5,3.4|
7,6,1.3|
7,7,6.1|
];
constraint_x2_y2=[
0,0,5.1|
0,1,7.1|
0,2,8.3|
0,3,6|
0,4,8|
0,5,5.2|
0,6,4.1|
0,7,0.18|
1,0,1.9|
1,1,6.9|
1,2,5.1|
1,3,9.4|
1,4,8.8|
1,5,5.8|
1,6,4|
1,7,1.6|
2,0,0.025|
2,1,2.4|
2,2,8.2|
2,3,5|
2,4,8.6|
2,5,9|
2,6,4|
2,7,2|
3,0,5.6|
3,1,5.8|
3,2,5.5|
3,3,9.4|
3,4,7.9|
3,5,9.9|
3,6,4.3|
3,7,4.6|
4,0,9.5|
4,1,7.1|
4,2,0.92|
4,3,1.5|
4,4,2.8|
4,5,6.9|
4,6,9.4|
4,7,1.7|
5,0,3.9|
5,1,8|
5,2,2|
5,3,1.8|
5,4,5.1|
5,5,1|
5,6,2.1|
5,7,1.5|
6,0,5.2|
6,1,3.3|
6,2,2.7|
6,3,6.6|
6,4,1.7|
6,5,6.7|
6,6,1.1|
6,7,7.4|
7,0,2.4|
7,1,6|
7,2,5.6|
7,3,5.5|
7,4,9.9|
7,5,7.9|
7,6,2.7|
7,7,1.6|
];
constraint_x3_y3=[
0,0,0.66|
0,1,0.85|
0,2,8.2|
0,3,6.3|
0,4,3.7|
0,5,6.8|
0,6,1.3|
0,7,2.9|
1,0,2.4|
1,1,7.1|
1,2,4.7|
1,3,0.48|
1,4,8.7|
1,5,1.9|
1,6,8.5|
1,7,6.2|
2,0,7.2|
2,1,4.8|
2,2,0.5|
2,3,8.8|
2,4,9.3|
2,5,9.1|
2,6,2.9|
2,7,4.8|
3,0,0.91|
3,1,2.1|
3,2,4.9|
3,3,1.4|
3,4,7.9|
3,5,2.6|
3,6,9.5|
3,7,1.1|
4,0,2.2|
4,1,4.7|
4,2,1.6|
4,3,7.8|
4,4,0.36|
4,5,5|
4,6,6.5|
4,7,1.8|
5,0,0.85|
5,1,8.6|
5,2,1.1|
5,3,1.4|
5,4,2.5|
5,5,8.4|
5,6,6.8|
5,7,3.7|
6,0,5|
6,1,5.3|
6,2,2.5|
6,3,4.1|
6,4,2.9|
6,5,1.6|
6,6,1.8|
6,7,3.1|
7,0,1.9|
7,1,1.1|
7,2,8.7|
7,3,7.4|
7,4,2.7|
7,5,6.9|
7,6,8.6|
7,7,7.2|
];
constraint_x4_y4=[
0,0,5|
0,1,6.2|
0,2,3.8|
0,3,2|
0,4,9.4|
0,5,1.7|
0,6,6.5|
0,7,9.3|
1,0,7.3|
1,1,6.7|
1,2,9.1|
1,3,5.2|
1,4,7.9|
1,5,6.7|
1,6,6.7|
1,7,3.6|
2,0,6.4|
2,1,10|
2,2,10|
2,3,3.3|
2,4,9|
2,5,5.8|
2,6,6.9|
2,7,8.8|
3,0,3.3|
3,1,3.2|
3,2,7.2|
3,3,0.15|
3,4,5.9|
3,5,5.1|
3,6,6|
3,7,6.9|
4,0,0.85|
4,1,8.3|
4,2,1.7|
4,3,5|
4,4,9.2|
4,5,2.9|
4,6,7.5|
4,7,9.5|
5,0,1.2|
5,1,2.8|
5,2,3.4|
5,3,2.1|
5,4,5.2|
5,5,7.7|
5,6,7.4|
5,7,8.8|
6,0,2.3|
6,1,5.6|
6,2,0.75|
6,3,2.1|
6,4,6|
6,5,8.2|
6,6,4.5|
6,7,4.7|
7,0,0.058|
7,1,7.7|
7,2,4.4|
7,3,5.2|
7,4,4|
7,5,6.7|
7,6,8.4|
7,7,5.9|
];
constraint_x5_y5=[
0,0,2.4|
0,1,6|
0,2,9.2|
0,3,1.7|
0,4,2.9|
0,5,8|
0,6,6.7|
0,7,1.5|
1,0,5.7|
1,1,0.92|
1,2,7.5|
1,3,2.7|
1,4,5.9|
1,5,8.8|
1,6,3.7|
1,7,0.34|
2,0,8.4|
2,1,5.1|
2,2,8.7|
2,3,2.4|
2,4,5.6|
2,5,9.4|
2,6,1.1|
2,7,6|
3,0,0.15|
3,1,0.013|
3,2,5.2|
3,3,0.27|
3,4,7.1|
3,5,9|
3,6,3.2|
3,7,3.7|
4,0,3.6|
4,1,5.4|
4,2,9.9|
4,3,3.7|
4,4,2.6|
4,5,7.8|
4,6,0.56|
4,7,2.9|
5,0,10|
5,1,8.8|
5,2,2.9|
5,3,1.2|
5,4,4.1|
5,5,6.4|
5,6,2.6|
5,7,9.6|
6,0,2.1|
6,1,3.2|
6,2,5.9|
6,3,6.6|
6,4,0.65|
6,5,2.9|
6,6,9.3|
6,7,6.8|
7,0,6.3|
7,1,9.2|
7,2,4.6|
7,3,1.4|
7,4,8|
7,5,9.2|
7,6,5.2|
7,7,7.2|
];
constraint_x6_y6=[
0,0,4.9|
0,1,8.1|
0,2,7.3|
0,3,9.4|
0,4,7.9|
0,5,5.5|
0,6,2.1|
0,7,8.8|
1,0,1.3|
1,1,5.8|
1,2,2.5|
1,3,7.8|
1,4,1.5|
1,5,8.8|
1,6,4.9|
1,7,8.6|
2,0,5|
2,1,7.4|
2,2,0.15|
2,3,5|
2,4,0.52|
2,5,2.9|
2,6,7.2|
2,7,5.5|
3,0,6.6|
3,1,3.7|
3,2,3.8|
3,3,3.7|
3,4,4|
3,5,6.1|
3,6,6.3|
3,7,6.3|
4,0,9.6|
4,1,7.8|
4,2,0.59|
4,3,1.9|
4,4,1.2|
4,5,1.3|
4,6,6.4|
4,7,3.8|
5,0,4.1|
5,1,2.5|
5,2,8.4|
5,3,9.7|
5,4,5|
5,5,3.2|
5,6,9.9|
5,7,4.3|
6,0,1.8|
6,1,2.7|
6,2,1.4|
6,3,8.5|
6,4,0.94|
6,5,2.4|
6,6,4.1|
6,7,8.5|
7,0,4.1|
7,1,3.4|
7,2,5.3|
7,3,9.6|
7,4,2.6|
7,5,3.5|
7,6,6.1|
7,7,1.3|
];
initial_distribution_y1=[0.11,0.027,0.27,0.2,0.0091,0.034,0.17,0.19];
initial_distribution_y2=[0.058,0.13,0.25,0.16,0.21,0.1,0.051,0.051];
initial_distribution_y3=[0.27,0.2,0.057,0.011,0.024,0.17,0.086,0.19];
initial_distribution_y4=[0.13,0.13,0.0061,0.012,0.24,0.23,0.23,0.031];
initial_distribution_y5=[0.11,0.24,0.13,0.0046,0.2,0.016,0.23,0.074];
initial_distribution_y6=[0.12,0.1,0.12,0.18,0.053,0.18,0.12,0.13];
transition_y1=[
0.11,0.14,0.092,0.17,0.058,0.13,0.12,0.18|
0.05,0.14,0.21,0.14,0.15,0.072,0.18,0.053|
0.1,0.064,0.13,0.18,0.12,0.13,0.16,0.1|
0.0072,0.081,0.096,0.16,0.19,0.027,0.24,0.2|
0.1,0.12,0.055,0.11,0.15,0.18,0.17,0.12|
0.18,0.18,0.058,0.14,0.12,0.042,0.18,0.09|
0.072,0.088,0.16,0.075,0.06,0.16,0.16,0.22|
0.14,0.28,0.24,0.07,0.017,0.13,0.11,0.021|
];
transition_y2=[
0.066,0.18,0.15,0.13,0.043,0.16,0.078,0.19|
0.084,0.23,0.096,0.082,0.061,0.18,0.059,0.21|
0.21,0.15,0.23,0.032,0.026,0.084,0.089,0.19|
0.15,0.18,0.15,0.12,0.19,0.17,0.013,0.017|
0.027,0.15,0.027,0.021,0.14,0.1,0.3,0.24|
0.16,0.069,0.17,0.13,0.097,0.2,0.056,0.12|
0.15,0.0089,0.2,0.078,0.15,0.017,0.2,0.21|
0.12,0.17,0.13,0.12,0.18,0.0065,0.21,0.072|
];
transition_y3=[
0.1,0.28,0.23,0.15,0.047,0.13,0.047,0.0099|
0.16,0.18,0.035,0.2,0.1,0.011,0.12,0.19|
0.14,0.15,0.11,0.22,0.2,0.032,0.057,0.083|
0.14,0.028,0.096,0.11,0.18,0.11,0.17,0.17|
0.26,0.17,0.13,0.063,0.0039,0.053,0.18,0.14|
0.22,0.25,0.035,0.016,0.097,0.066,0.13,0.19|
0.16,0.041,0.28,0.047,0.19,0.095,0.12,0.065|
0.22,0.07,0.032,0.12,0.15,0.16,0.15,0.1|
];
transition_y4=[
0.11,0.057,0.15,0.18,0.096,0.071,0.21,0.12|
0.15,0.0063,0.13,0.19,0.18,0.091,0.17,0.093|
0.14,0.19,0.1,0.13,0.04,0.13,0.17,0.094|
0.15,0.079,0.22,0.26,0.13,0.029,0.083,0.05|
0.11,0.19,0.13,0.0041,0.16,0.19,0.074,0.14|
0.11,0.23,0.0077,0.088,0.14,0.2,0.03,0.19|
0.03,0.13,0.27,0.14,0.15,0.053,0.13,0.094|
0.036,0.12,0.12,0.021,0.21,0.19,0.2,0.096|
];
transition_y5=[
0.16,0.3,0.036,0.006,0.086,0.24,0.029,0.14|
0.059,0.087,0.17,0.029,0.2,0.17,0.13,0.16|
0.18,0.045,0.044,0.053,0.25,0.099,0.21,0.12|
0.17,0.008,0.23,0.21,0.1,0.013,0.13,0.13|
0.19,0.15,0.0051,0.031,0.24,0.13,0.011,0.24|
0.15,0.25,0.12,0.096,0.069,0.024,0.032,0.26|
0.18,0.1,0.11,0.055,0.27,0.02,0.041,0.22|
0.13,0.24,0.16,0.11,0.15,0.0099,0.11,0.089|
];
transition_y6=[
0.26,0.032,0.04,0.18,0.2,0.093,0.17,0.022|
0.095,0.057,0.14,0.14,0.14,0.099,0.2,0.13|
0.023,0.14,0.2,0.23,0.12,0.15,0.035,0.11|
0.11,0.24,0.21,0.16,0.059,0.013,0.074,0.13|
0.17,0.044,0.15,0.17,0.049,0.12,0.13,0.17|
0.18,0.17,0.16,0.12,0.019,0.034,0.078,0.24|
0.14,0.13,0.089,0.13,0.13,0.16,0.065,0.16|
0.22,0.013,0.12,0.019,0.029,0.22,0.38,0.006|
];
